c
c start with comments
c
p cnf 29 20
6 14 0
19 10 1 19 0
-16 -10 0
-25 -21 -25 0
9 11 0
-12 -26 -6 0
28 -18 26 0
16 13 4 0
-3 25 -28 -15 -30 0
24 -22 0
5 -9 20 0
-15 4 -24 -7 0
-17 -23 -3 27 29 0
-18 -1 -7 21 0
-15 -13 17 0
-19 -20 0
15 -14 0
7 22 -6 16 -18 0
10 -27 2 0
16 28 -2 -2 0